(declare-const delta_param2@pos Int)
(declare-const delta_param1 Int)
(declare-const delta_param0@width Int)
(declare-const delta_j Int)
(declare-const delta_i Int)
(declare-const delta_param2@width Int)
(declare-const delta_param0 Int)
(declare-const delta_param0@pos Int)
(declare-const delta_param2 Int)
(declare-const delta_param1@pos Int)
(declare-const delta_param1@width Int)
(assert (exists
         ((uninterp?1 Int) (|i'?2| Int) (|param0'?3| Int) (|param1'?4| Int)
            (|param2'?5| Int) (|param0@pos'?6| Int) (|param1@pos'?7| Int)
            (|param2@pos'?8| Int) (|param0@width'?9| Int)
            (|param1@width'?10| Int) (|param2@width'?11| Int)
            (|S1,0?12| Real) (|j'?13| Int) (KSUM1?14 Int) (|K1,0?15| Int)
            (K?16 Int) (|param2@width'?17| Int) (|param1@width'?18| Int)
            (|param0@width'?19| Int) (|param2@pos'?20| Int)
            (|param1@pos'?21| Int) (|param0@pos'?22| Int) (|param2'?23| Int)
            (|param1'?24| Int) (|param0'?25| Int) (|j'?26| Int)
            (stderr?27 Int) (stderr@pos?28 Int) (stderr@width?29 Int)
            (ny?30 Int) (j?31 Int) (nx?32 Int) (i?33 Int)
            (param2@width?34 Int) (param2@pos?35 Int) (param2?36 Int)
            (param1?37 Int) (param1@pos?38 Int) (param1@width?39 Int)
            (param0?40 Int) (param0@pos?41 Int) (param0@width?42 Int))
         (and (<= (- i?33) 0) (< (+ (- nx?32) i?33) 0) (<= (- K?16) 0)
                (<= (- |K1,0?15|) 0) (= (+ |K1,0?15| (- K?16)) 0)
                (<= (+ KSUM1?14 (- K?16)) 0)
                (= (+ (- |S1,0?12|) |j'?13| (- |K1,0?15|)) 0)
                (= (+ (- KSUM1?14) |K1,0?15|) 0) (= |S1,0?12| 0)
                (or (and (= K?16 0)
                           (= (+ (- |param2@width'?11|) param2@width?34) 0)
                           (= (+ (- |param1@width'?10|) param1@width?39) 0)
                           (= (+ (- |param0@width'?9|) param0@width?42) 0)
                           (= (+ (- |param2@pos'?8|) param2@pos?35) 0)
                           (= (+ (- |param1@pos'?7|) param1@pos?38) 0)
                           (= (+ (- |param0@pos'?6|) param0@pos?41) 0)
                           (= (+ (- |param2'?5|) param2?36) 0)
                           (= (+ (- |param1'?4|) param1?37) 0)
                           (= (+ (- |param0'?3|) param0?40) 0)
                           (= (- |j'?13|) 0))
                      (and (<= (+ (- K?16) 1) 0) (<= (+ (- ny?30) 1) 0)
                             (<= (+ (- uninterp?1) i?33) 0)
                             (<= (+ (mod uninterp?1 20) -19) 0)
                             (<= (- (mod uninterp?1 20)) 0)
                             (<= (+ (- nx?32) 1) 0) (<= (- i?33) 0)
                             (= (+ stderr?27 (- |param0'?3|)) 0)
                             (= (+ stderr@pos?28 (- |param0@pos'?6|)) 0)
                             (= (+ stderr@width?29 (- |param0@width'?9|)) 0)
                             (<= (+ (- ny?30) |j'?13|) 0)
                             (<= (+ (- uninterp?1) i?33) 0)
                             (<= (+ (mod (+ |j'?13| uninterp?1 -1) 20) -19) 0)
                             (<= (- (mod (+ |j'?13| uninterp?1 -1) 20)) 0)
                             (<= (+ (- nx?32) 1) 0) (<= (- i?33) 0)
                             (<= (+ (- |j'?13|) 1) 0)))
                (= (+ |j'?13| (- K?16)) 0) (<= (- K?16) 0) (<= (- |j'?13|) 0)
                (< (- nx?32) 0) (<= (- i?33) 0) (<= (+ ny?30 (- |j'?13|)) 0)
                (= (+ |param2@width'?17| (- |param2@width'?11|)) 0)
                (= (+ |param1@width'?18| (- |param1@width'?10|)) 0)
                (= (+ |param0@width'?19| (- |param0@width'?9|)) 0)
                (= (+ |param2@pos'?20| (- |param2@pos'?8|)) 0)
                (= (+ |param1@pos'?21| (- |param1@pos'?7|)) 0)
                (= (+ |param0@pos'?22| (- |param0@pos'?6|)) 0)
                (= (+ |param2'?23| (- |param2'?5|)) 0)
                (= (+ |param1'?24| (- |param1'?4|)) 0)
                (= (+ |param0'?25| (- |param0'?3|)) 0)
                (= (+ |j'?26| (- |j'?13|)) 0) (= (+ |i'?2| (- i?33) -1) 0)
                (<= 0 uninterp?1) (<= i?33 uninterp?1)
                (= delta_i (+ |i'?2| (- i?33)))
                (= delta_j (+ |j'?26| (- j?31)))
                (= delta_param0 (+ |param0'?25| (- param0?40)))
                (= delta_param1 (+ |param1'?24| (- param1?37)))
                (= delta_param2 (+ |param2'?23| (- param2?36)))
                (= delta_param0@pos (+ |param0@pos'?22| (- param0@pos?41)))
                (= delta_param1@pos (+ |param1@pos'?21| (- param1@pos?38)))
                (= delta_param2@pos (+ |param2@pos'?20| (- param2@pos?35)))
                (= delta_param0@width (+ |param0@width'?19|
                                           (- param0@width?42)))
                (= delta_param1@width (+ |param1@width'?18|
                                           (- param1@width?39)))
                (= delta_param2@width (+ |param2@width'?17|
                                           (- param2@width?34))))))
(check-sat)
